unknown
(model
; cardinality of BoundSet is 2
(declare-sort BoundSet 0)
; rep: @uc_BoundSet_0
; rep: @uc_BoundSet_1
; cardinality of UnboundSet is 1
(declare-sort UnboundSet 0)
(declare-fun groundTerm_3 () UnboundSet)
(define-fun IsAsian ((BOUND_VARIABLE_487 BoundSet)) Bool true)
(define-fun IsTeenager ((BOUND_VARIABLE_487 BoundSet)) Bool true)
(define-fun IsWearing ((BOUND_VARIABLE_494 BoundSet) (BOUND_VARIABLE_495 BoundSet)) Bool true)
(define-fun HasWhite ((BOUND_VARIABLE_487 BoundSet)) Bool true)
(define-fun HasBlackStripes ((BOUND_VARIABLE_487 BoundSet)) Bool true)
(define-fun IsSeated ((BOUND_VARIABLE_487 BoundSet)) Bool false)
)
sat
(model
; cardinality of BoundSet is 1
(declare-sort BoundSet 0)
; rep: @uc_BoundSet_0
; cardinality of UnboundSet is 1
(declare-sort UnboundSet 0)
(declare-fun groundTerm_5 () UnboundSet)
(define-fun IsAsian ((BOUND_VARIABLE_525 BoundSet)) Bool true)
(define-fun IsTeenager ((BOUND_VARIABLE_525 BoundSet)) Bool true)
(define-fun IsWearing ((BOUND_VARIABLE_532 BoundSet) (BOUND_VARIABLE_533 BoundSet)) Bool true)
(define-fun HasWhite ((BOUND_VARIABLE_525 BoundSet)) Bool true)
(define-fun HasBlackStripes ((BOUND_VARIABLE_525 BoundSet)) Bool true)
(define-fun IsSeated ((BOUND_VARIABLE_525 BoundSet)) Bool false)
)
